# Solution for model UnassignedDistance
# Objective value = -9.9155000661886206e-01
x[0][0] 3.3010322001050474e+00
x[0][1] 1.0094301625237221e+00
x[0][2] 1.2532992144165094e+00
x[1][0] 2.0347986801362103e+00
x[1][1] 8.8789853838844990e-01
x[1][2] 9.8518965240436551e-01
x[2][0] 1.2660011283142623e+00
x[2][1] 1.2266681000899070e-01
x[2][2] 2.6869071577294712e-01
x[3][0] 0
x[3][1] 0
x[3][2] 0
v[0,1][0] 1.2662335199688370e+00
v[0,1][1] 1.2153162413527230e-01
v[0,1][2] 2.6810956201214386e-01
v[0,2][0] 2.0350310717907782e+00
v[0,2][1] 8.8676335251472982e-01
v[0,2][2] 9.8460849864355948e-01
v[0,3][0] 3.3010322001050310e+00
v[0,3][1] 1.0094301625237154e+00
v[0,3][2] 1.2532992144165038e+00
v[1,2][0] 7.6879755182194820e-01
v[1,2][1] 7.6523172837945919e-01
v[1,2][2] 7.1649893663141839e-01
v[1,3][0] 2.0347986801362055e+00
v[1,3][1] 8.8789853838848687e-01
v[1,3][2] 9.8518965240436884e-01
v[2,3][0] 1.2660011283142623e+00
v[2,3][1] 1.2266681000899070e-01
v[2,3][2] 2.6869071577294712e-01
w[0,1] 1.2999999999999992e+00
w[0,2] 2.4284057737779725e+00
w[0,3] 3.6723999999999819e+00
w[1,2] 1.2999999999999998e+00
w[1,3] 2.4288614893322205e+00
w[2,3] 1.2999999999999998e+00
a[0,1,0] 0
a[0,1,1] 0
a[0,1,2] 1
a[0,1,3] 0
a[0,1,4] 0
a[0,1,5] 0
a[0,2,0] 0
a[0,2,1] 0
a[0,2,2] 0
a[0,2,3] 0
a[0,2,4] 1
a[0,2,5] 0
a[0,3,0] 0
a[0,3,1] 0
a[0,3,2] 0
a[0,3,3] 0
a[0,3,4] 0
a[0,3,5] 1
a[1,2,0] 0
a[1,2,1] 1
a[1,2,2] 0
a[1,2,3] 0
a[1,2,4] 0
a[1,2,5] 0
a[1,3,0] 0
a[1,3,1] 0
a[1,3,2] 0
a[1,3,3] 1
a[1,3,4] 0
a[1,3,5] 0
a[2,3,0] 1
a[2,3,1] 0
a[2,3,2] 0
a[2,3,3] 0
a[2,3,4] 0
a[2,3,5] 0
z[0,1,0] -6.3200092159654275e-07
z[0,1,1] -6.3200092159654275e-07
z[0,1,2] 1.2999999999999992e+00
z[0,1,3] -6.3200092159654275e-07
z[0,1,4] -6.3200092159654275e-07
z[0,1,5] -6.3200092004223052e-07
z[0,2,0] -7.3526344523955345e-07
z[0,2,1] -7.3526344523955345e-07
z[0,2,2] -7.3526344612773187e-07
z[0,2,3] -7.3526344523955345e-07
z[0,2,4] 2.4284057737779725e+00
z[0,2,5] -7.3526344523955345e-07
z[0,3,0] 1.2878587085651816e-14
z[0,3,1] -1.4654943925052066e-14
z[0,3,2] 1.6431300764452317e-14
z[0,3,3] 1.2878587085651816e-14
z[0,3,4] 1.2878587085651816e-14
z[0,3,5] 3.6723999999999819e+00
z[1,2,0] -7.2195493894255947e-07
z[1,2,1] 1.2999999999999998e+00
z[1,2,2] -7.2195493849847026e-07
z[1,2,3] -7.2195493849847026e-07
z[1,2,4] -7.2195493849847026e-07
z[1,2,5] -7.2195493849847026e-07
z[1,3,0] -7.3499950214994669e-07
z[1,3,1] -7.3499950214994669e-07
z[1,3,2] -7.3499950214994669e-07
z[1,3,3] 2.4288614893322205e+00
z[1,3,4] -7.3499950214994669e-07
z[1,3,5] -7.3499950214994669e-07
z[2,3,0] 1.2999999999999998e+00
z[2,3,1] -6.2972700809460491e-07
z[2,3,2] -6.2972700787256031e-07
z[2,3,3] -6.2972700809460491e-07
z[2,3,4] -6.2972700787256031e-07
z[2,3,5] -6.2972700787256031e-07
